0
Node Left Objective IInf Best_Integer Best_Bound ItCnt Gap
0 0 0.0000 27 0.0000 11
0+ 0 nan nan 2429.3757 0.0000 nan 100.00%
0+ 0 nan nan 1026.5391 0.0000 nan 100.00%
0 2 0.0000 27 1026.5391 0.0000 11 100.00%
CPXPARAM_MIP_Cuts_FlowCovers 0
1
Node Left Objective IInf Best_Integer Best_Bound ItCnt Gap
0 0 0.0000 14 0.0000 13
0+ 0 nan nan 3272.4485 0.0000 nan 100.00%
0+ 0 nan nan 430.4440 0.0000 nan 100.00%
0 0 0.0000 12 430.4440 Flowcuts:12 35 100.00%
0+ 0 nan nan 240.4333 0.0000 nan 100.00%
0 2 0.0000 12 240.4333 0.0000 35 100.00%
CPXPARAM_MIP_Cuts_FlowCovers 8
2
Node Left Objective IInf Best_Integer Best_Bound ItCnt Gap
0 0 0.0000 28 0.0000 12
0+ 0 nan nan 3959.4042 0.0000 nan 100.00%
0+ 0 nan nan 1173.5814 0.0000 nan 100.00%
0 2 0.0000 28 1173.5814 0.0000 12 100.00%
CPXPARAM_MIP_Cuts_FlowCovers 0
3
Node Left Objective IInf Best_Integer Best_Bound ItCnt Gap
0 0 0.0000 14 0.0000 13
0+ 0 nan nan 3005.4159 0.0000 nan 100.00%
0+ 0 nan nan 395.3366 0.0000 nan 100.00%
0+ 0 nan nan 286.0795 0.0000 nan 100.00%
0 2 0.0000 14 286.0795 0.0000 13 100.00%
CPXPARAM_MIP_Cuts_FlowCovers 0
4
Node Left Objective IInf Best_Integer Best_Bound ItCnt Gap
0 0 -0.0000 17 -0.0000 12
0+ 0 nan nan 3261.8186 -0.0000 nan 100.00%
0+ 0 nan nan 766.7996 -0.0000 nan 100.00%
0+ 0 nan nan 729.3839 -0.0000 nan 100.00%
0+ 0 nan nan 501.7074 -0.0000 nan 100.00%
0 2 -0.0000 17 501.7074 -0.0000 12 100.00%
CPXPARAM_MIP_Cuts_FlowCovers 0
5
Node Left Objective IInf Best_Integer Best_Bound ItCnt Gap
0 0 0.0000 14 0.0000 13
0+ 0 nan nan 2397.4108 0.0000 nan 100.00%
0+ 0 nan nan 409.3649 0.0000 nan 100.00%
0 0 0.0000 13 409.3649 Flowcuts:12 29 100.00%
0+ 0 nan nan 209.7760 0.0000 nan 100.00%
0 0 0.0000 13 209.7760 Flowcuts:1 31 100.00%
0+ 0 nan nan 137.3253 0.0000 nan 100.00%
0 2 0.0000 13 137.3253 0.0000 31 100.00%
CPXPARAM_MIP_Cuts_FlowCovers 7
6
Node Left Objective IInf Best_Integer Best_Bound ItCnt Gap
0 0 -0.0000 27 -0.0000 13
0+ 0 nan nan 5035.3548 -0.0000 nan 100.00%
0+ 0 nan nan 1010.8538 -0.0000 nan 100.00%
0+ 0 nan nan 522.8337 -0.0000 nan 100.00%
0 2 -0.0000 27 522.8337 -0.0000 13 100.00%
CPXPARAM_MIP_Cuts_FlowCovers 0
7
Node Left Objective IInf Best_Integer Best_Bound ItCnt Gap
0 0 -0.0000 28 -0.0000 12
0+ 0 nan nan 5418.5961 -0.0000 nan 100.00%
0+ 0 nan nan 832.2752 -0.0000 nan 100.00%
0+ 0 nan nan 461.0232 -0.0000 nan 100.00%
0 2 -0.0000 28 461.0232 -0.0000 12 100.00%
CPXPARAM_MIP_Cuts_FlowCovers 0
8
Node Left Objective IInf Best_Integer Best_Bound ItCnt Gap
0 0 0.0000 28 0.0000 12
0+ 0 nan nan 4409.9311 0.0000 nan 100.00%
0+ 0 nan nan 1278.9463 0.0000 nan 100.00%
0 2 0.0000 28 1278.9463 0.0000 12 100.00%
CPXPARAM_MIP_Cuts_FlowCovers 0
9
Node Left Objective IInf Best_Integer Best_Bound ItCnt Gap
0 0 0.0000 24 0.0000 12
0+ 0 nan nan 2620.5706 0.0000 nan 100.00%
0+ 0 nan nan 838.6332 0.0000 nan 100.00%
0+ 0 nan nan 510.4590 0.0000 nan 100.00%
0+ 0 nan nan 233.5413 0.0000 nan 100.00%
0 2 0.0000 24 233.5413 0.0000 12 100.00%
CPXPARAM_MIP_Cuts_FlowCovers 0
10
Node Left Objective IInf Best_Integer Best_Bound ItCnt Gap
0 0 -0.0000 29 -0.0000 12
0+ 0 nan nan 5078.2432 -0.0000 nan 100.00%
0+ 0 nan nan 1205.4897 -0.0000 nan 100.00%
0+ 0 nan nan 1131.1511 -0.0000 nan 100.00%
0 2 -0.0000 29 1131.1511 -0.0000 12 100.00%
CPXPARAM_MIP_Cuts_FlowCovers 0
11
Node Left Objective IInf Best_Integer Best_Bound ItCnt Gap
0 0 0.0000 28 0.0000 12
0+ 0 nan nan 5061.8884 0.0000 nan 100.00%
0+ 0 nan nan 995.6573 0.0000 nan 100.00%
0+ 0 nan nan 486.6317 0.0000 nan 100.00%
0 2 0.0000 28 486.6317 0.0000 12 100.00%
CPXPARAM_MIP_Cuts_FlowCovers 0
12
Node Left Objective IInf Best_Integer Best_Bound ItCnt Gap
0 0 -0.0000 29 -0.0000 12
0+ 0 nan nan 3347.8338 -0.0000 nan 100.00%
0+ 0 nan nan 1103.5671 -0.0000 nan 100.00%
0 2 -0.0000 29 1103.5671 -0.0000 12 100.00%
CPXPARAM_MIP_Cuts_FlowCovers 0
13
Node Left Objective IInf Best_Integer Best_Bound ItCnt Gap
0 0 -0.0000 29 -0.0000 12
0+ 0 nan nan 2891.3767 -0.0000 nan 100.00%
0+ 0 nan nan 885.9934 -0.0000 nan 100.00%
0+ 0 nan nan 689.4434 -0.0000 nan 100.00%
0+ 0 nan nan 257.6730 -0.0000 nan 100.00%
0 2 -0.0000 29 257.6730 -0.0000 12 100.00%
CPXPARAM_MIP_Cuts_FlowCovers 0
14
Node Left Objective IInf Best_Integer Best_Bound ItCnt Gap
0 0 -0.0000 29 -0.0000 12
0+ 0 nan nan 2605.7473 -0.0000 nan 100.00%
0+ 0 nan nan 1103.5570 -0.0000 nan 100.00%
0 2 -0.0000 29 1103.5570 -0.0000 12 100.00%
CPXPARAM_MIP_Cuts_FlowCovers 0
15
Node Left Objective IInf Best_Integer Best_Bound ItCnt Gap
0 0 -0.0000 29 -0.0000 13
0+ 0 nan nan 2702.1327 -0.0000 nan 100.00%
0+ 0 nan nan 904.1924 -0.0000 nan 100.00%
0+ 0 nan nan 478.7292 -0.0000 nan 100.00%
0+ 0 nan nan 146.5923 -0.0000 nan 100.00%
0 2 -0.0000 29 146.5923 -0.0000 13 100.00%
CPXPARAM_MIP_Cuts_FlowCovers 0
16
Node Left Objective IInf Best_Integer Best_Bound ItCnt Gap
0 0 0.0000 29 0.0000 11
0+ 0 nan nan 3576.8670 0.0000 nan 100.00%
0+ 0 nan nan 1089.1526 0.0000 nan 100.00%
0+ 0 nan nan 1000.0559 0.0000 nan 100.00%
0 2 0.0000 29 1000.0559 0.0000 11 100.00%
CPXPARAM_MIP_Cuts_FlowCovers 0
17
Node Left Objective IInf Best_Integer Best_Bound ItCnt Gap
0 0 0.0000 29 0.0000 12
0+ 0 nan nan 2805.8693 0.0000 nan 100.00%
0+ 0 nan nan 1072.7036 0.0000 nan 100.00%
0 0 0.0000 29 1072.7036 Flowcuts:18 50 100.00%
0 0 0.0000 29 1072.7036 Flowcuts:3 56 100.00%
0+ 0 nan nan 343.3639 0.0000 nan 100.00%
0 2 0.0000 29 343.3639 0.0000 56 100.00%
CPXPARAM_MIP_Cuts_FlowCovers 18
18
Node Left Objective IInf Best_Integer Best_Bound ItCnt Gap
0 0 0.0000 29 0.0000 12
0+ 0 nan nan 3636.3062 0.0000 nan 100.00%
0+ 0 nan nan 1085.0621 0.0000 nan 100.00%
0 2 0.0000 29 1085.0621 0.0000 12 100.00%
CPXPARAM_MIP_Cuts_FlowCovers 0
19
Node Left Objective IInf Best_Integer Best_Bound ItCnt Gap
0 0 -0.0000 29 -0.0000 12
0+ 0 nan nan 2751.8816 -0.0000 nan 100.00%
0+ 0 nan nan 957.8379 -0.0000 nan 100.00%
0+ 0 nan nan 350.4042 -0.0000 nan 100.00%
0+ 0 nan nan 254.6837 -0.0000 nan 100.00%
0 2 -0.0000 29 254.6837 -0.0000 12 100.00%
CPXPARAM_MIP_Cuts_FlowCovers 0
20
Node Left Objective IInf Best_Integer Best_Bound ItCnt Gap
0 0 0.0000 28 0.0000 13
0+ 0 nan nan 4442.0625 0.0000 nan 100.00%
0+ 0 nan nan 1314.2586 0.0000 nan 100.00%
0 0 0.0000 30 1314.2586 Flowcuts:14 21 100.00%
0+ 0 nan nan 1109.6870 0.0000 nan 100.00%
0 0 0.0000 30 1109.6870 Flowcuts:1 23 100.00%
0+ 0 nan nan 1033.4845 0.0000 nan 100.00%
0+ 0 nan nan 973.7218 0.0000 nan 100.00%
0+ 0 nan nan 531.7635 0.0000 nan 100.00%
0 2 0.0000 30 531.7635 0.0000 23 100.00%
CPXPARAM_MIP_Cuts_FlowCovers 2
21
Node Left Objective IInf Best_Integer Best_Bound ItCnt Gap
0 0 0.0000 29 0.0000 13
0+ 0 nan nan 4519.4390 0.0000 nan 100.00%
0+ 0 nan nan 606.4076 0.0000 nan 100.00%
0 0 0.0000 29 606.4076 Flowcuts:7 17 100.00%
0+ 0 nan nan 398.2928 0.0000 nan 100.00%
0+ 0 nan nan 159.6777 0.0000 nan 100.00%
0 2 0.0000 29 159.6777 0.0000 17 100.00%
CPXPARAM_MIP_Cuts_FlowCovers 1
22
Node Left Objective IInf Best_Integer Best_Bound ItCnt Gap
0 0 -0.0000 19 -0.0000 15
0+ 0 nan nan 2758.5282 -0.0000 nan 100.00%
0+ 0 nan nan 1061.9824 -0.0000 nan 100.00%
0 0 -0.0000 18 1061.9824 Flowcuts:1 19 100.00%
0 0 -0.0000 18 1061.9824 Flowcuts:12 43 100.00%
0+ 0 nan nan 491.5062 -0.0000 nan 100.00%
0+ 0 nan nan 376.0222 -0.0000 nan 100.00%
0+ 0 nan nan 2.4199 -0.0000 nan 100.00%
0 0 -1.00000e+75 0 2.4199 -0.0000 43 100.00%
Repeating presolve.
Tried aggregator 1 time.
MIQP Presolve eliminated 72 rows and 58 columns.
MIQP Presolve nan nan modified 1 nan coefficients.
Reduced MIQP has 42 rows, 42 columns, and
Reduced MIQP has 17 binaries, 0 generals, 0
Reduced MIQP objective Q matrix has 9 nonzeros.
Presolve time = 0.00 sec. (0.12 ticks)
Probing time = 0.00 sec. (0.01 ticks)
Tried aggregator 1 time.
Reduced MIQP has 42 rows, 42 columns, and
Reduced MIQP has 17 binaries, 0 generals, 0
Reduced MIQP objective Q matrix has 9 nonzeros.
Presolve time = 0.00 sec. (0.06 ticks)
Represolve time = 0.00 sec. (0.32 ticks)
Probing time = 0.00 sec. (0.01 ticks)
MIP emphasis:balance nan nan optimality and nan feasibility.
MIP search method:traditional branch-and-cut.
Parallel mode:none, nan nan using 1 nan thread.
Warning: Barrier optimality criterion affected by large objective
Root relaxation solution time = 0.00 sec. (0.70
0+ 0 nan nan 2.4199 -0.0000 nan 100.00%
0 0 -0.0000 5 2.4199 -0.0000 57 100.00%
0 2 -0.0000 4 2.4199 -0.0000 57 100.00%
CPXPARAM_MIP_Cuts_FlowCovers 3
23
Node Left Objective IInf Best_Integer Best_Bound ItCnt Gap
0 0 0.0000 25 0.0000 15
0+ 0 nan nan 3761.2048 0.0000 nan 100.00%
0+ 0 nan nan 633.3686 0.0000 nan 100.00%
0+ 0 nan nan 621.8492 0.0000 nan 100.00%
0+ 0 nan nan 394.3735 0.0000 nan 100.00%
0 2 0.0000 25 394.3735 0.0000 15 100.00%
CPXPARAM_MIP_Cuts_FlowCovers 0
24
Node Left Objective IInf Best_Integer Best_Bound ItCnt Gap
0 0 0.0000 29 0.0000 12
0+ 0 nan nan 3612.5558 0.0000 nan 100.00%
0+ 0 nan nan 938.7500 0.0000 nan 100.00%
0 0 0.0000 31 938.7500 Flowcuts:14 44 100.00%
0+ 0 nan nan 858.7866 0.0000 nan 100.00%
0 0 0.0000 31 858.7866 Flowcuts:1 46 100.00%
0+ 0 nan nan 762.2930 0.0000 nan 100.00%
0+ 0 nan nan 645.4777 0.0000 nan 100.00%
0 2 0.0000 31 645.4777 0.0000 46 100.00%
CPXPARAM_MIP_Cuts_FlowCovers 14
25
Node Left Objective IInf Best_Integer Best_Bound ItCnt Gap
0 0 0.0000 29 0.0000 13
0+ 0 nan nan 3587.6238 0.0000 nan 100.00%
0+ 0 nan nan 699.1337 0.0000 nan 100.00%
0+ 0 nan nan 597.3388 0.0000 nan 100.00%
0+ 0 nan nan 308.0377 0.0000 nan 100.00%
0 2 0.0000 29 308.0377 0.0000 13 100.00%
CPXPARAM_MIP_Cuts_FlowCovers 0
26
Node Left Objective IInf Best_Integer Best_Bound ItCnt Gap
0 0 0.0000 29 0.0000 13
0+ 0 nan nan 3532.1610 0.0000 nan 100.00%
0+ 0 nan nan 938.1434 0.0000 nan 100.00%
0+ 0 nan nan 800.6404 0.0000 nan 100.00%
0+ 0 nan nan 418.0572 0.0000 nan 100.00%
0 2 0.0000 29 418.0572 0.0000 13 100.00%
CPXPARAM_MIP_Cuts_FlowCovers 0
27
Node Left Objective IInf Best_Integer Best_Bound ItCnt Gap
0 0 0.0000 29 0.0000 13
0+ 0 nan nan 2978.7946 0.0000 nan 100.00%
0+ 0 nan nan 695.3404 0.0000 nan 100.00%
0+ 0 nan nan 319.8431 0.0000 nan 100.00%
0+ 0 nan nan 243.8650 0.0000 nan 100.00%
0 2 0.0000 29 243.8650 0.0000 13 100.00%
CPXPARAM_MIP_Cuts_FlowCovers 0
28
Node Left Objective IInf Best_Integer Best_Bound ItCnt Gap
0 0 0.0000 30 0.0000 11
0+ 0 nan nan 5836.8915 0.0000 nan 100.00%
0+ 0 nan nan 1316.0757 0.0000 nan 100.00%
0+ 0 nan nan 1131.0084 0.0000 nan 100.00%
0 2 0.0000 30 1131.0084 0.0000 11 100.00%
CPXPARAM_MIP_Cuts_FlowCovers 0
29
Node Left Objective IInf Best_Integer Best_Bound ItCnt Gap
0 0 0.0000 21 0.0000 12
0+ 0 nan nan 2949.2601 0.0000 nan 100.00%
0+ 0 nan nan 927.5887 0.0000 nan 100.00%
0+ 0 nan nan 220.7501 0.0000 nan 100.00%
0+ 0 nan nan 115.6174 0.0000 nan 100.00%
0 2 0.0000 21 115.6174 0.0000 12 100.00%
CPXPARAM_MIP_Cuts_FlowCovers 0
30
Node Left Objective IInf Best_Integer Best_Bound ItCnt Gap
0 0 -0.0000 27 -0.0000 13
0+ 0 nan nan 3890.8939 -0.0000 nan 100.00%
0+ 0 nan nan 1288.9355 -0.0000 nan 100.00%
0 0 -0.0000 26 1288.9355 Flowcuts:1 17 100.00%
0 0 -0.0000 27 1288.9355 Flowcuts:12 31 100.00%
0 0 -0.0000 27 1288.9355 Flowcuts:11 61 100.00%
0+ 0 nan nan 1069.7631 -0.0000 nan 100.00%
0+ 0 nan nan 846.8474 -0.0000 nan 100.00%
0+ 0 nan nan 560.8186 -0.0000 nan 100.00%
0+ 0 nan nan 0.9758 -0.0000 nan 100.00%
0 0 -1.00000e+75 0 0.9758 -0.0000 61 100.00%
Repeating presolve.
Tried aggregator 1 time.
MIQP Presolve eliminated 50 rows and 38 columns.
Reduced MIQP has 80 rows, 70 columns, and
Reduced MIQP has 26 binaries, 0 generals, 0
Reduced MIQP objective Q matrix has 9 nonzeros.
Presolve time = 0.00 sec. (0.16 ticks)
Probing time = 0.00 sec. (0.02 ticks)
Tried aggregator 1 time.
Reduced MIQP has 80 rows, 70 columns, and
Reduced MIQP has 26 binaries, 0 generals, 0
Reduced MIQP objective Q matrix has 9 nonzeros.
Presolve time = 0.00 sec. (0.11 ticks)
Represolve time = 0.00 sec. (0.51 ticks)
Probing time = 0.00 sec. (0.02 ticks)
MIP emphasis:balance nan nan optimality and nan feasibility.
MIP search method:traditional branch-and-cut.
Parallel mode:none, nan nan using 1 nan thread.
Warning: Barrier optimality criterion affected by large objective
Root relaxation solution time = 0.01 sec. (1.43
0+ 0 nan nan 0.9758 -0.0000 nan 100.00%
0 0 -0.0000 11 0.9758 -0.0000 74 100.00%
0 0 -0.0000 10 0.9758 Flowcuts:1 78 100.00%
0 0 -0.0000 10 0.9758 Flowcuts:1 80 100.00%
0 0 -0.0000 11 0.9758 Flowcuts:10 98 100.00%
0 2 -0.0000 11 0.9758 -0.0000 98 100.00%
CPXPARAM_MIP_Cuts_FlowCovers 9
31
Node Left Objective IInf Best_Integer Best_Bound ItCnt Gap
0 0 -0.0000 25 -0.0000 13
0+ 0 nan nan 3415.1208 -0.0000 nan 100.00%
0+ 0 nan nan 1100.2016 -0.0000 nan 100.00%
0 0 -0.0000 24 1100.2016 Flowcuts:1 17 100.00%
0 0 -0.0000 24 1100.2016 Flowcuts:14 45 100.00%
0+ 0 nan nan 988.3846 -0.0000 nan 100.00%
0+ 0 nan nan 324.3761 -0.0000 nan 100.00%
0 2 -0.0000 24 324.3761 -0.0000 45 100.00%
CPXPARAM_MIP_Cuts_FlowCovers 15
32
Node Left Objective IInf Best_Integer Best_Bound ItCnt Gap
0 0 -0.0000 29 -0.0000 11
0+ 0 nan nan 2266.6548 -0.0000 nan 100.00%
0+ 0 nan nan 1030.0515 -0.0000 nan 100.00%
0 2 -0.0000 29 1030.0515 -0.0000 11 100.00%
CPXPARAM_MIP_Cuts_FlowCovers 0
33
Node Left Objective IInf Best_Integer Best_Bound ItCnt Gap
0 0 -0.0000 28 -0.0000 13
0+ 0 nan nan 3742.9462 -0.0000 nan 100.00%
0+ 0 nan nan 717.6282 -0.0000 nan 100.00%
0+ 0 nan nan 234.2233 -0.0000 nan 100.00%
0 2 -0.0000 28 234.2233 -0.0000 13 100.00%
CPXPARAM_MIP_Cuts_FlowCovers 0
34
Node Left Objective IInf Best_Integer Best_Bound ItCnt Gap
0 0 -0.0000 29 -0.0000 12
0+ 0 nan nan 2714.7275 -0.0000 nan 100.00%
0+ 0 nan nan 1021.8941 -0.0000 nan 100.00%
0+ 0 nan nan 774.6617 -0.0000 nan 100.00%
0 2 -0.0000 29 774.6617 -0.0000 12 100.00%
CPXPARAM_MIP_Cuts_FlowCovers 0
35
Node Left Objective IInf Best_Integer Best_Bound ItCnt Gap
0 0 -0.0000 23 -0.0000 14
0+ 0 nan nan 3120.5902 -0.0000 nan 100.00%
0+ 0 nan nan 701.2883 -0.0000 nan 100.00%
0 0 -0.0000 22 701.2883 Flowcuts:1 18 100.00%
0 0 -0.0000 22 701.2883 Flowcuts:13 48 100.00%
0+ 0 nan nan 591.7623 -0.0000 nan 100.00%
0+ 0 nan nan 263.3279 -0.0000 nan 100.00%
0 2 -0.0000 22 263.3279 -0.0000 48 100.00%
CPXPARAM_MIP_Cuts_FlowCovers 13
36
Node Left Objective IInf Best_Integer Best_Bound ItCnt Gap
0 0 -0.0000 30 -0.0000 11
0+ 0 nan nan 7135.2084 -0.0000 nan 100.00%
0+ 0 nan nan 1130.5701 -0.0000 nan 100.00%
0+ 0 nan nan 975.4182 -0.0000 nan 100.00%
0 2 -0.0000 30 975.4182 -0.0000 11 100.00%
CPXPARAM_MIP_Cuts_FlowCovers 0
37
Node Left Objective IInf Best_Integer Best_Bound ItCnt Gap
0 0 0.0000 27 0.0000 12
0+ 0 nan nan 3363.3122 0.0000 nan 100.00%
0+ 0 nan nan 593.1735 0.0000 nan 100.00%
0+ 0 nan nan 143.9179 0.0000 nan 100.00%
0 2 0.0000 27 143.9179 0.0000 12 100.00%
CPXPARAM_MIP_Cuts_FlowCovers 0
38
Node Left Objective IInf Best_Integer Best_Bound ItCnt Gap
0 0 -0.0000 26 -0.0000 13
0+ 0 nan nan 4038.1295 -0.0000 nan 100.00%
0+ 0 nan nan 888.4106 -0.0000 nan 100.00%
0 0 -0.0000 25 888.4106 Flowcuts:1 19 100.00%
0 0 -0.0000 25 888.4106 Flowcuts:6 31 100.00%
0+ 0 nan nan 777.4114 -0.0000 nan 100.00%
0+ 0 nan nan 635.8827 -0.0000 nan 100.00%
0+ 0 nan nan 0.5794 -0.0000 nan 100.00%
0 0 -1.00000e+75 0 0.5794 -0.0000 31 100.00%
0 2 -0.0000 22 0.5794 -0.0000 31 100.00%
CPXPARAM_MIP_Cuts_FlowCovers 4
39
Node Left Objective IInf Best_Integer Best_Bound ItCnt Gap
0 0 0.0000 23 0.0000 13
0+ 0 nan nan 3818.6617 0.0000 nan 100.00%
0+ 0 nan nan 700.8378 0.0000 nan 100.00%
0+ 0 nan nan 337.9267 0.0000 nan 100.00%
0 2 0.0000 23 337.9267 0.0000 13 100.00%
CPXPARAM_MIP_Cuts_FlowCovers 0
